(set-logic QF_BV)
(declare-const x (_ BitVec 8))
(declare-const y (_ BitVec 8))
(declare-const z (_ BitVec 8))
(declare-const w (_ BitVec 8))
(assert (bvsgt ((_ sign_extend 4) (bvsrem ((_ extract 3 0) (_ bv9 5)) (bvsrem (_ bv6 4) (_ bv13 4)))) ((_ extract 7 0) (bvashr (concat (_ bv2 2) (_ bv21 6)) (bvurem y w)))))
(assert (bvsgt (bvneg ((_ zero_extend 3) (concat (_ bv0 3) (_ bv3 2)))) (bvxor (bvurem ((_ sign_extend 0) (_ bv103 8)) y) (_ bv139 8))))
(assert (bvugt (_ bv9 4) ((_ sign_extend 1) (_ bv5 3))))
(assert (bvslt ((_ sign_extend 4) ((_ extract 3 0) (bvnot (_ bv15 4)))) (_ bv73 8)))
(check-sat)
(exit)
